(declare-fun temp1854_2 () (_ BitVec 64))
(declare-fun temp1854_1 () (_ BitVec 64))
(declare-fun temp1854_3 () (_ BitVec 64))
(declare-fun var3344182 () (_ BitVec 64))
(declare-fun var3543260 () (_ BitVec 64))
(declare-fun temp1854_4 () (_ BitVec 64))
(declare-fun var3674455 () (_ BitVec 64))
(declare-fun temp1854_5 () (_ BitVec 64))
(declare-fun var3674456 () (_ BitVec 64))
(declare-fun temp1854_7 () (_ BitVec 64))
(declare-fun temp1854_6 () (_ BitVec 64))
(declare-fun temp1854_8 () (_ BitVec 64))
(declare-fun var4261928 () (_ BitVec 64))
(declare-fun var4261970 () (_ BitVec 64))
(declare-fun temp1854_10 () (_ BitVec 64))
(declare-fun temp1854_9 () (_ BitVec 64))
(declare-fun temp1854_11 () (_ BitVec 64))
(declare-fun var4852728 () (_ BitVec 64))
(declare-fun var4261915 () (_ BitVec 64))
(declare-fun var4261914 () (_ BitVec 64))
(declare-fun temp1854_12 () (_ BitVec 64))
(declare-fun var4261919 () (_ BitVec 64))
(declare-fun temp1854_13 () (_ BitVec 64))
(declare-fun var4261921 () (_ BitVec 64))
(declare-fun temp1854_14 () (_ BitVec 64))
(declare-fun temp1854_15 () (_ BitVec 64))
(declare-fun var5376206 () (_ BitVec 64))
(declare-fun temp1854_16 () (_ BitVec 64))
(declare-fun temp1854_17 () (_ BitVec 64))
(declare-fun var5376252 () (_ BitVec 64))
(declare-fun var5376283 () (_ BitVec 64))
(declare-fun var5376204 () (_ BitVec 64))
(declare-fun var533040 () (_ BitVec 64))
(declare-fun var533041 () (_ BitVec 64))
(assert (= temp1854_2 #x0000000000000000))
(assert (= temp1854_1 temp1854_2))
(assert (= temp1854_3 #x0000000000000000))
(assert (= var3344182 temp1854_3))
(assert (= var3543260 var3344182))
(assert (= temp1854_4 #x0000000000000000))
(assert (= var3674455 temp1854_4))
(assert (= temp1854_5 #x0000000000000000))
(assert (= var3674456 temp1854_5))
(assert (= temp1854_7 #x0000000000000000))
(assert (= temp1854_6 temp1854_7))
(assert (= temp1854_8 #x0000000000000000))
(assert (= var4261928 temp1854_8))
(assert (= var4261970 var4261928))
(assert (= temp1854_10 #x0000000000000000))
(assert (= temp1854_9 temp1854_10))
(assert (= temp1854_11 #x0000000000000001))
(assert (= var4852728 temp1854_11))
(assert (= var4261915 var4261970))
(assert (= var4261914 var4261915))
(assert (= temp1854_12 #x0000000000000001))
(assert (= var4261919 (bvand var4261914 temp1854_12)))
(assert (= temp1854_13 #x0000000000000000))
(assert (= var4261921
   (ite (= var4261919 temp1854_13) #x0000000000000001 #x0000000000000000)))
(assert (= temp1854_14 #x0000000000000001))
(assert (= var4261921 temp1854_14))
(assert (= temp1854_15 #x0000000000000000))
(assert (= var5376206 temp1854_15))
(assert (= temp1854_16 #x0000000000000002))
(assert (= temp1854_17 #x0000000000000000))
(assert (= var5376252 (ite (= var5376206 #x0000000000000001) temp1854_16 temp1854_17)))
(assert (= var5376283 var5376252))
(assert (= var5376204 var5376283))
(assert (= var533040 var5376204))
(assert (= var533041 var533040))
(model-add temp1854_2 () (_ BitVec 64) #x0000000000000000)
(model-add temp1854_1 () (_ BitVec 64) #x0000000000000000)
(model-add temp1854_3 () (_ BitVec 64) #x0000000000000000)
(model-add var3344182 () (_ BitVec 64) #x0000000000000000)
(model-add var3543260 () (_ BitVec 64) #x0000000000000000)
(model-add temp1854_4 () (_ BitVec 64) #x0000000000000000)
(model-add var3674455 () (_ BitVec 64) #x0000000000000000)
(model-add temp1854_5 () (_ BitVec 64) #x0000000000000000)
(model-add var3674456 () (_ BitVec 64) #x0000000000000000)
(model-add temp1854_7 () (_ BitVec 64) #x0000000000000000)
(model-add temp1854_6 () (_ BitVec 64) #x0000000000000000)
(model-add temp1854_8 () (_ BitVec 64) #x0000000000000000)
(model-add var4261928 () (_ BitVec 64) #x0000000000000000)
(model-add var4261970 () (_ BitVec 64) #x0000000000000000)
(model-add temp1854_10 () (_ BitVec 64) #x0000000000000000)
(model-add temp1854_9 () (_ BitVec 64) #x0000000000000000)
(model-add temp1854_11 () (_ BitVec 64) #x0000000000000001)
(model-add var4852728 () (_ BitVec 64) #x0000000000000001)
(model-add var4261915 () (_ BitVec 64) #x0000000000000000)
(model-add var4261914 () (_ BitVec 64) #x0000000000000000)
(model-add temp1854_12 () (_ BitVec 64) #x0000000000000001)
(model-add var4261919 () (_ BitVec 64) #x0000000000000000)
(model-add temp1854_13 () (_ BitVec 64) #x0000000000000000)
(model-add var4261921 () (_ BitVec 64) #x0000000000000001)
(model-add temp1854_14 () (_ BitVec 64) #x0000000000000001)




